(set-logic HORN)
(set-info :source |
    Benchmark: C_VC
    Output by Princess (http://www.philipp.ruemmer.org/princess.shtml)
|)
(set-info :status unknown)
(declare-fun inv_main19 (Int Int Int Int Int Int) Bool)
(declare-fun inv_main20 (Int Int Int Int Int Int) Bool)
(declare-fun inv_main23 (Int Int Int Int Int Int) Bool)
(declare-fun inv_main26 (Int Int Int Int Int Int) Bool)
(declare-fun inv_main3 (Int Int Int Int Int Int) Bool)
(declare-fun inv_main6 (Int Int Int Int Int Int) Bool)
(assert (forall ((var0 Int)) (forall ((var1 Int)) (forall ((var2 Int)) (forall ((var3 Int)) (forall ((var4 Int)) (inv_main3 0 var1 var0 var2 var3 var4 ) ) ) ) ) ) )
(assert (forall ((var0 Int)) (forall ((var1 Int)) (forall ((var2 Int)) (forall ((var3 Int)) (forall ((var4 Int)) (forall ((var5 Int)) (or (not (and (inv_main3 var5 var3 var2 var0 var1 var4 ) (<= 0 (+ (+ var4 (- 1) ) (- 1) ) ) ) ) (inv_main6 var5 var3 var3 var0 var1 var4 ) ) ) ) ) ) ) ) )
(assert (forall ((var0 Int)) (forall ((var1 Int)) (forall ((var2 Int)) (forall ((var3 Int)) (forall ((var4 Int)) (forall ((var5 Int)) (or (not (and (inv_main20 var5 var3 var2 var0 var1 var4 ) (<= 0 (+ var3 (* (- 1) var0 ) ) ) ) ) (inv_main23 var5 var3 var2 var0 var4 var4 ) ) ) ) ) ) ) ) )
(assert (forall ((var0 Int)) (forall ((var1 Int)) (forall ((var2 Int)) (forall ((var3 Int)) (forall ((var4 Int)) (forall ((var5 Int)) (or (not (and (inv_main23 var5 var3 var2 var0 var1 var4 ) (not (<= 0 (+ var3 (* (- 1) var1 ) ) ) ) ) ) (inv_main20 var5 var3 var2 (+ var0 1 ) var1 var4 ) ) ) ) ) ) ) ) )
(assert (forall ((var0 Int)) (forall ((var1 Int)) (forall ((var2 Int)) (forall ((var3 Int)) (forall ((var4 Int)) (forall ((var5 Int)) (or (not (and (inv_main23 var5 var3 var2 var0 var1 var4 ) (<= 0 (+ var3 (* (- 1) var1 ) ) ) ) ) (inv_main23 var5 var3 var2 var0 (+ var1 1 ) var4 ) ) ) ) ) ) ) ) )
(assert (forall ((var0 Int)) (forall ((var1 Int)) (forall ((var2 Int)) (forall ((var3 Int)) (forall ((var4 Int)) (forall ((var5 Int)) (or (not (and (inv_main26 var5 var3 var2 var0 var1 var4 ) (<= 0 (+ var3 (* (- 1) var0 ) ) ) ) ) (inv_main26 var5 var3 var2 (+ var0 1 ) var1 var4 ) ) ) ) ) ) ) ) )
(assert (forall ((var0 Int)) (forall ((var1 Int)) (forall ((var2 Int)) (forall ((var3 Int)) (forall ((var4 Int)) (forall ((var5 Int)) (or (not (and (inv_main6 var5 var3 var2 var0 var1 var4 ) (and (<= 0 (+ var3 (* (- 1) var4 ) ) ) (and (not (= var5 0 ) ) (and (<= 0 (+ (+ var3 (* (- 1) var2 ) ) (- 1) ) ) (<= 0 (+ var2 (- 1) ) ) ) ) ) ) ) (inv_main19 var5 var3 var2 var4 var1 var4 ) ) ) ) ) ) ) ) )
(assert (forall ((var0 Int)) (forall ((var1 Int)) (forall ((var2 Int)) (forall ((var3 Int)) (forall ((var4 Int)) (forall ((var5 Int)) (or (not (and (inv_main6 var5 var3 var2 var0 var1 var4 ) (and (not (<= 0 (+ var3 (* (- 1) var4 ) ) ) ) (and (not (= var5 0 ) ) (and (<= 0 (+ (+ var3 (* (- 1) var2 ) ) (- 1) ) ) (<= 0 (+ var2 (- 1) ) ) ) ) ) ) ) (inv_main20 var5 var3 var2 var4 var1 var4 ) ) ) ) ) ) ) ) )
(assert (forall ((var0 Int)) (forall ((var1 Int)) (forall ((var2 Int)) (forall ((var3 Int)) (forall ((var4 Int)) (forall ((var5 Int)) (or (not (and (inv_main19 var5 var3 var2 var0 var1 var4 ) (<= 0 (+ var3 (* (- 1) (+ var0 1 ) ) ) ) ) ) (inv_main19 var5 var3 var2 (+ var0 1 ) var1 var4 ) ) ) ) ) ) ) ) )
(assert (forall ((var0 Int)) (forall ((var1 Int)) (forall ((var2 Int)) (forall ((var3 Int)) (forall ((var4 Int)) (forall ((var5 Int)) (or (not (and (inv_main19 var5 var3 var2 var0 var1 var4 ) (not (<= 0 (+ var3 (* (- 1) (+ var0 1 ) ) ) ) ) ) ) (inv_main20 var5 var3 var2 var4 var1 var4 ) ) ) ) ) ) ) ) )
(assert (forall ((var0 Int)) (forall ((var1 Int)) (forall ((var2 Int)) (forall ((var3 Int)) (forall ((var4 Int)) (forall ((var5 Int)) (or (not (and (inv_main20 var5 var3 var2 var0 var1 var4 ) (not (<= 0 (+ var3 (* (- 1) var0 ) ) ) ) ) ) (inv_main26 var5 var3 var2 var4 var1 var4 ) ) ) ) ) ) ) ) )
(assert (forall ((var0 Int)) (forall ((var1 Int)) (forall ((var2 Int)) (forall ((var3 Int)) (forall ((var4 Int)) (forall ((var5 Int)) (or (not (and (inv_main6 var5 var3 var2 var0 var1 var4 ) (and (= var5 0 ) (and (<= 0 (+ (+ var3 (* (- 1) var2 ) ) (- 1) ) ) (<= 0 (+ var2 (- 1) ) ) ) ) ) ) (inv_main26 var5 var3 var2 var4 var1 var4 ) ) ) ) ) ) ) ) )
(assert (forall ((var0 Int)) (forall ((var1 Int)) (forall ((var2 Int)) (forall ((var3 Int)) (forall ((var4 Int)) (forall ((var5 Int)) (or (not (and (inv_main26 var5 var3 var2 var0 var1 var4 ) (not (<= 0 (+ var3 (* (- 1) var0 ) ) ) ) ) ) (inv_main6 var5 var3 (+ var2 (- 1) ) var0 var1 var2 ) ) ) ) ) ) ) ) )
(assert (forall ((var0 Int)) (forall ((var1 Int)) (forall ((var2 Int)) (forall ((var3 Int)) (forall ((var4 Int)) (forall ((var5 Int)) (or (not (and (inv_main6 var5 var3 var2 var0 var1 var4 ) (and (not (<= 0 (+ (+ var3 (* (- 1) var2 ) ) (- 1) ) ) ) (<= 0 (+ var2 (- 1) ) ) ) ) ) (inv_main6 var5 var3 (+ var2 (- 1) ) var0 var1 var2 ) ) ) ) ) ) ) ) )
(assert (forall ((var0 Int)) (forall ((var1 Int)) (forall ((var2 Int)) (forall ((var3 Int)) (forall ((var4 Int)) (forall ((var5 Int)) (not (and (inv_main19 var5 var3 var2 var0 var1 var4 ) (not (<= 0 (+ var0 (- 1) ) ) ) ) ) ) ) ) ) ) ) )
(check-sat)
